p cnf 20 14
1 4 6 7 11 13 -18 17 -14 -12 -10 -8 -5 -3 -2 0
3 5 9 -16 -10 -6 0
5 11 -18 17 -14 -4 0
1 19 -12 -18 13 -2 15 0
3 11 -16 -14 -6 0
3 7 13 15 -16 -12 -8 0
-14 20 -10 9 11 0
-8 -20 7 0
3 5 9 -14 -10 -8 -4 0
17 -6 -4 5 0
1 4 8 -20 13 -18 -16 -7 -3 0
-8 -16 4 -19 0
8 -20 -19 17 -7 0
-16 3 -20 5 0
